Problem:    
Rows:       163
Columns:    57 (42 integer, 42 binary)
Non-zeros:  496
Status:     INTEGER OPTIMAL
Objective:  value = 40.319689 (MINimum)

   No.   Row name        Activity     Lower bound   Upper bound
------ ------------    ------------- ------------- -------------
     1 r.5                   1040.32             0               
     2 r.6                  -978.958      -987.832               
     3 r.7                   40.3197             0               
     4 r.8                   31.8852       -969.81               
     5 r.9                   1040.32             0               
     6 r.10                 -968.115      -989.157               
     7 r.11                  40.3197             0               
     8 r.12                  31.8852      -972.238               
     9 r.13                  40.3197             0               
    10 r.14                 -987.267      -990.622               
    11 r.15                  1040.32             0               
    12 r.16                 -968.115      -977.767               
    13 r.17                  40.3197             0               
    14 r.18                  8.87379      -998.093               
    15 r.19                  1040.32             0               
    16 r.20                 -992.642      -995.997               
    17 r.21                  1040.32             0               
    18 r.22                 -991.126      -994.481               
    19 r.23                  40.3197             0               
    20 r.24                 -985.035       -988.39               
    21 r.25                  40.3197             0               
    22 r.26                   3.3551      -995.097               
    23 r.27                  1040.32             0               
    24 r.28                 -996.645      -996.645               
    25 r.29                  1040.32             0               
    26 r.30                  -959.68      -991.566               
    27 r.31                  40.3197             0               
    28 r.32                  40.3197      -985.328               
    29 r.33                        1             1             = 
    30 r.34                        1             1             = 
    31 r.35                        1             1             = 
    32 r.36                        1             1             = 
    33 r.37                        1             1             = 
    34 r.38                        1             1             = 
    35 r.39                        1             1             = 
    36 r.40                        2             2               
    37 r.41                       -2         -1001               
    38 r.42                 -989.157      -989.157               
    39 r.43                     1000             2               
    40 r.44                    -1000         -1001               
    41 r.45                     2000      -972.238               
    42 r.46                     1001             2               
    43 r.47                    -1001         -1001               
    44 r.48                  991.691      -990.622               
    45 r.49                     1001             2               
    46 r.50                    -1001         -1001               
    47 r.51                     2000      -977.767               
    48 r.52                 -987.832      -987.832               
    49 r.53                  23.0115       -969.81               
    50 r.54                 -986.316      -987.832               
    51 r.55                  24.5272       -969.81               
    52 r.56                 -987.832      -987.832               
    53 r.57                  23.0115       -969.81               
    54 r.58                  6.07761      -987.832               
    55 r.59                  1016.92       -969.81               
    56 r.60                 -980.723      -991.566               
    57 r.61                  19.2774      -985.328               
    58 r.62                 -991.566      -991.566               
    59 r.63                  8.43444      -985.328               
    60 r.64                        2             2               
    61 r.65                       -2         -1001               
    62 r.66                  989.157       12.1685               
    63 r.67                     1000             2               
    64 r.68                    -1000         -1001               
    65 r.69                     2000       30.1898               
    66 r.70                     1001             2               
    67 r.71                    -1001         -1001               
    68 r.72                  980.848      -990.622               
    69 r.73                     1001             2               
    70 r.74                    -1001         -1001               
    71 r.75                     2000      -977.767               
    72 r.76                 -976.989      -989.157               
    73 r.77                  23.0115      -972.238               
    74 r.78                 -975.473      -989.157               
    75 r.79                  24.5272      -972.238               
    76 r.80                        2             2               
    77 r.81                       -2         -1001               
    78 r.82                 -23.0115      -994.481               
    79 r.83                     1000             2               
    80 r.84                    -1000         -1001               
    81 r.85                  983.079       -988.39               
    82 r.86                  -971.47      -989.157               
    83 r.87                  28.5301      -972.238               
    84 r.88                  -971.47      -989.157               
    85 r.89                  28.5301      -972.238               
    86 r.90                 -991.566      -991.566               
    87 r.91                  8.43444      -985.328               
    88 r.92                 -991.566      -991.566               
    89 r.93                  8.43444      -985.328               
    90 r.94                     1001             2               
    91 r.95                    -1001         -1001               
    92 r.96                  3008.31       12.1685               
    93 r.97                     1001             2               
    94 r.98                    -1001         -1001               
    95 r.99                     2000       30.1898               
    96 r.100                    1001             2               
    97 r.101                   -1001         -1001               
    98 r.102                 3019.15        10.843               
    99 r.103                    1001             2               
   100 r.104                   -1001         -1001               
   101 r.105                    2000       27.7621               
   102 r.106                    1000             2               
   103 r.107                   -1000         -1001               
   104 r.108                 2996.14      -998.093               
   105 r.109                       2             2               
   106 r.110                      -2         -1001               
   107 r.111                -24.5272      -995.997               
   108 r.112                    1001             2               
   109 r.113                   -1001         -1001               
   110 r.114                 2996.14      -994.481               
   111 r.115                    1001             2               
   112 r.116                   -1001         -1001               
   113 r.117                 983.079       -988.39               
   114 r.118                -990.622      -990.622               
   115 r.119                 -971.47      -977.767               
   116 r.120                -990.622      -990.622               
   117 r.121                 -971.47      -977.767               
   118 r.122                 27.5865      -991.566               
   119 r.123                 1027.59      -985.328               
   120 r.124                -991.566      -991.566               
   121 r.125                 8.43444      -985.328               
   122 r.126                    1000             2               
   123 r.127                   -1000         -1001               
   124 r.128                 1003.86       9.37813               
   125 r.129                       2             2               
   126 r.130                      -2         -1001               
   127 r.131                 24.5272       22.2334               
   128 r.132                    1001             2               
   129 r.133                   -1001         -1001               
   130 r.134                    2000      -994.481               
   131 r.135                    1001             2               
   132 r.136                   -1001         -1001               
   133 r.137                 1007.61       -988.39               
   134 r.138                 5.51869      -998.093               
   135 r.139                -995.997      -995.997               
   136 r.140                 5.51869      -998.093               
   137 r.141                -995.997      -995.997               
   138 r.142                       2             2               
   139 r.143                      -2         -1001               
   140 r.144                 23.0115        10.843               
   141 r.145                    1000             2               
   142 r.146                   -1000         -1001               
   143 r.147                 3016.92       27.7621               
   144 r.148                    1001             2               
   145 r.149                   -1001         -1001               
   146 r.150                 1003.86       9.37813               
   147 r.151                    1001             2               
   148 r.152                   -1001         -1001               
   149 r.153                 3016.92       22.2334               
   150 r.154                    1001             2               
   151 r.155                   -1001         -1001               
   152 r.156                    2000        1.9068               
   153 r.157                    1001             2               
   154 r.158                   -1001         -1001               
   155 r.159                 2992.39       4.00296               
   156 r.160                -994.481      -994.481               
   157 r.161                 -988.39       -988.39               
   158 r.162                -994.481      -994.481               
   159 r.163                 -988.39       -988.39               
   160 r.164                -968.554      -991.566               
   161 r.165                 31.4459      -985.328               
   162 r.166                  25.355      -991.566               
   163 r.167                 1025.36      -985.328               

   No. Column name       Activity     Lower bound   Upper bound
------ ------------    ------------- ------------- -------------
     1 tt                    40.3197             0               
     2 s_1_1        *              1             0             1 
     3 t_1_1                 19.2774             0               
     4 s_1_7        *              1             0             1 
     5 s_2_1        *              0             0             1 
     6 t_2_1                 8.43444             0               
     7 s_2_7        *              0             0             1 
     8 s_1_2        *              1             0             1 
     9 t_1_2                 8.43444             0               
    10 s_2_2        *              0             0             1 
    11 t_2_2                 8.43444             0               
    12 s_1_3        *              0             0             1 
    13 t_1_3                 1027.59             0               
    14 s_2_3        *              1             0             1 
    15 t_2_3                 8.43444             0               
    16 s_1_4        *              0             0             1 
    17 t_1_4                 31.4459             0               
    18 s_2_4        *              1             0             1 
    19 t_2_4                 32.9616             0               
    20 s_1_5        *              1             0             1 
    21 t_1_5                 31.4459             0               
    22 s_2_5        *              0             0             1 
    23 t_2_5                 1025.36             0               
    24 s_1_6        *              0             0             1 
    25 t_1_6                 36.9646             0               
    26 s_2_6        *              1             0             1 
    27 t_2_6                 36.9646             0               
    28 t_1_7                       0             0               
    29 t_2_7                       0             0               
    30 r_1_1_2      *              0             0             1 
    31 u_1_1_2      *              1             0             1 
    32 r_2_1_2      *              1             0             1 
    33 u_2_1_2      *              0             0             1 
    34 r_1_1_3      *              1             0             1 
    35 u_1_1_3      *              0             0             1 
    36 r_2_1_3      *              1             0             1 
    37 u_2_1_3      *              0             0             1 
    38 r_1_2_3      *              1             0             1 
    39 u_1_2_3      *              0             0             1 
    40 r_2_2_3      *              1             0             1 
    41 u_2_2_3      *              0             0             1 
    42 r_1_2_5      *              0             0             1 
    43 u_1_2_5      *              0             0             1 
    44 r_2_2_5      *              1             0             1 
    45 u_2_2_5      *              0             0             1 
    46 r_1_3_4      *              1             0             1 
    47 u_1_3_4      *              0             0             1 
    48 r_2_3_4      *              0             0             1 
    49 u_2_3_4      *              0             0             1 
    50 r_1_3_5      *              1             0             1 
    51 u_1_3_5      *              0             0             1 
    52 r_2_3_5      *              1             0             1 
    53 u_2_3_5      *              0             0             1 
    54 r_1_4_5      *              1             0             1 
    55 u_1_4_5      *              0             0             1 
    56 r_2_4_5      *              1             0             1 
    57 u_2_4_5      *              0             0             1 

Integer feasibility conditions:

KKT.PE: max.abs.err = 4.55e-13 on row 143
        max.rel.err = 7.51e-17 on row 143
        High quality

KKT.PB: max.abs.err = 0.00e+00 on row 0
        max.rel.err = 0.00e+00 on row 0
        High quality

End of output
